RT is False
Default write of storage_offers_DA.csv just to have a file (but constraint should be inactive)
Reading model...
...model read.
creating competitive generators file...
...competitive generators recorded.
Loading data...
.. day-ahead data with real-time VRE data read.
Compiling instance...
...instance created.
Creating Offer Mitigation (model will solve as dispatch if TRUE)...
Solving...

Welcome to IBM(R) ILOG(R) CPLEX(R) Interactive Optimizer 12.9.0.0
  with Simplex, Mixed Integer & Barrier Optimizers
5725-A06 5725-A29 5724-Y48 5724-Y49 5724-Y54 5724-Y55 5655-Y21
Copyright IBM Corp. 1988, 2019.  All Rights Reserved.

Type 'help' for a list of available commands.
Type 'help' followed by a command name for more
information on commands.

CPLEX> Logfile 'cplex.log' closed.
Logfile 'C:\Users\llavin\Desktop\test919\logs\tmp4r3nzkqx.cplex.log' open.
CPLEX> New value for parallel optimization mode: -1
CPLEX> New value for mixed integer optimality gap tolerance: 0.01
CPLEX> New value for integrality tolerance: 1e-09
CPLEX> New value for feasibility tolerance: 0.01
CPLEX> New value for deterministic time limit in ticks: 75000
CPLEX> Problem 'C:\Users\llavin\Desktop\test919\logs\tmp3oqxtwvr.pyomo.lp' read.
Read time = 0.05 sec. (3.04 ticks)
CPLEX> Problem name         : C:\Users\llavin\Desktop\test919\logs\tmp3oqxtwvr.pyomo.lp
Objective sense      : Minimize
Variables            :   26081  [Nneg: 1,  Box: 21616,  Free: 4464]
Objective nonzeros   :    2496
Linear constraints   :   27515  [Less: 14006,  Greater: 4416,  Equal: 9093]
  Nonzeros           :   89267
  RHS nonzeros       :   12271

Variables            : Min LB: -5000.000        Max UB: 1000000.       
Objective nonzeros   : Min   : 15.73158         Max   : 124.0997       
Linear constraints   :
  Nonzeros           : Min   : 0.8500000        Max   : 3000.000       
  RHS nonzeros       : Min   : 0.1750000        Max   : 5000.000       
CPLEX> CPXPARAM_Parallel                                -1
CPXPARAM_Simplex_Tolerances_Feasibility          0.01
CPXPARAM_DetTimeLimit                            75000
CPXPARAM_MIP_Tolerances_MIPGap                   0.01
CPXPARAM_MIP_Tolerances_Integrality              1.0000000000000001e-09
Parallel mode: opportunistic, using up to 32 threads for concurrent optimization.
Tried aggregator 1 time.
LP Presolve eliminated 21353 rows and 15463 columns.
Aggregator did 773 substitutions.
Reduced LP has 5389 rows, 9845 columns, and 31806 nonzeros.
Presolve time = 0.05 sec. (30.45 ticks)
Symmetry aggregator did 5563 additional substitutions.

Iteration log . . .
Iteration:     1   Dual objective     =             0.000000
Perturbation started.
Iteration:   101   Dual objective     =             0.000000
Iteration:   335   Dual objective     =             1.229895
Iteration:   593   Dual objective     =             1.753815
Iteration:   850   Dual objective     =             1.890597
Iteration:  1065   Dual objective     =             2.005262
Iteration:  1332   Dual objective     =             2.049748
Iteration:  1580   Dual objective     =             2.077666
Iteration:  1811   Dual objective     =             2.101775
Iteration:  2021   Dual objective     =         13118.878876
Iteration:  2219   Dual objective     =         62356.784130
Iteration:  2403   Dual objective     =        105112.352962
Iteration:  2634   Dual objective     =        126896.806889
Iteration:  2963   Dual objective     =        132618.052263
Removing perturbation.
Dual superbasis not built.
Using devex.

Primal simplex solved model.


Primal simplex - Optimal:  Objective =  1.3334378140e+05
Solution time =    0.19 sec.  Iterations = 1627 (1088)
Deterministic time = 81.83 ticks  (437.59 ticks/sec)

CPLEX> Solution written to file 'C:\Users\llavin\Desktop\test919\logs\tmpt5dpzvue.cplex.sol'.
CPLEX> Exporting results... 
...storage offer mitigation file created
Converting model to MPEC...
...converted
NOTE: initial MIP solve with only storage competitive to get feasible solution
Solving...

Welcome to IBM(R) ILOG(R) CPLEX(R) Interactive Optimizer 12.9.0.0
  with Simplex, Mixed Integer & Barrier Optimizers
5725-A06 5725-A29 5724-Y48 5724-Y49 5724-Y54 5724-Y55 5655-Y21
Copyright IBM Corp. 1988, 2019.  All Rights Reserved.

Type 'help' for a list of available commands.
Type 'help' followed by a command name for more
information on commands.

CPLEX> Logfile 'cplex.log' closed.
Logfile 'C:\Users\llavin\Desktop\test919\logs\tmpchyd6d5x.cplex.log' open.
CPLEX> New value for parallel optimization mode: -1
CPLEX> New value for mixed integer optimality gap tolerance: 0.01
CPLEX> New value for integrality tolerance: 1e-09
CPLEX> New value for feasibility tolerance: 0.01
CPLEX> New value for deterministic time limit in ticks: 75000
CPLEX> Problem 'C:\Users\llavin\Desktop\test919\logs\tmp6qox0_yn.pyomo.lp' read.
Read time = 0.27 sec. (14.78 ticks)
CPLEX> Problem name         : C:\Users\llavin\Desktop\test919\logs\tmp6qox0_yn.pyomo.lp
Objective sense      : Maximize
Variables            :   53805  [Nneg: 1,  Box: 22000,  Free: 4464,
                                 Binary: 27340]
Objective nonzeros   :    8980
Linear constraints   :  123205  [Less: 41346,  Greater: 59096,  Equal: 22763]
  Nonzeros           :  291801
  RHS nonzeros       :   67491

Variables            : Min LB: -5000.000        Max UB: 1000000.       
Objective nonzeros   : Min   : 0.1750000        Max   : 772.4167       
Linear constraints   :
  Nonzeros           : Min   : 0.1750000        Max   : 1000000.       
  RHS nonzeros       : Min   : 0.1750000        Max   : 1000000.       
CPLEX> CPXPARAM_Parallel                                -1
CPXPARAM_Simplex_Tolerances_Feasibility          0.01
CPXPARAM_DetTimeLimit                            75000
CPXPARAM_MIP_Tolerances_MIPGap                   0.01
CPXPARAM_MIP_Tolerances_Integrality              1.0000000000000001e-09
Tried aggregator 3 times.
MIP Presolve eliminated 88643 rows and 18943 columns.
MIP Presolve added 3402 rows and 0 columns.
MIP Presolve modified 24866 coefficients.
Aggregator did 12995 substitutions.
Reduced MIP has 24969 rows, 21311 columns, and 71251 nonzeros.
Reduced MIP has 8411 binaries, 0 generals, 0 SOSs, and 0 indicators.
Presolve time = 0.28 sec. (176.18 ticks)
Probing fixed 381 vars, tightened 2812 bounds.
Probing time = 1.17 sec. (872.00 ticks)
Tried aggregator 2 times.
MIP Presolve eliminated 860 rows and 763 columns.
MIP Presolve modified 2192 coefficients.
Aggregator did 42 substitutions.
Reduced MIP has 24067 rows, 20506 columns, and 68637 nonzeros.
Reduced MIP has 8030 binaries, 0 generals, 0 SOSs, and 0 indicators.
Presolve time = 0.09 sec. (68.59 ticks)
Probing fixed 0 vars, tightened 3 bounds.
Probing time = 0.05 sec. (31.98 ticks)
Clique table members: 6517.
MIP emphasis: balance optimality and feasibility.
MIP search method: dynamic search.
Parallel mode: opportunistic, using up to 32 threads.
Root relaxation solution time = 0.52 sec. (351.40 ticks)

        Nodes                                         Cuts/
   Node  Left     Objective  IInf  Best Integer    Best Bound    ItCnt     Gap

      0     0     4420.6652  1755                   4420.6652     7645         
      0     0     4420.6652   666                   Cuts: 577     7976         
      0     0     4420.1818   548                   Cuts: 323     8193         
      0     0     4420.1818   480                   Cuts: 213     8300         
      0     0     4418.4740   451                   Cuts: 114     8379         
      0     0     4418.4740   415                    Cuts: 84     8437         
      0     0     4418.4740   388                    Cuts: 58     8463         
      0     0     4418.4740   370                    Cuts: 60     8482         
      0     0     4418.4740   359                    Cuts: 33     8491         
      0     0     4418.4740   358                    Cuts: 25     8493         
      0     0     4418.4740    12                 Flowcuts: 1     8494         
      0     0     4418.4740    12                   Covers: 1     8495         
      0    26    infeasible                           Cuts: 4     8859         
Elapsed time = 10.59 sec. (6766.80 ticks, tree = 0.02 MB, solutions = 0)
*   289    80      integral     0    -3006.9328     4352.6223     9399  244.75%
    547   124     1229.5734    10    -3006.9328     4349.5976    13170  244.65%
   1099   321     2035.8753     6    -3006.9328     4349.5976    18119  244.65%
   1328   365     4019.1544     3    -3006.9328     4349.5976    18302  244.65%
   1568   551     2885.2153     6    -3006.9328     4349.5976    19398  244.65%
   1758   634     4164.3388     2    -3006.9328     4349.5976    19760  244.65%
   1921   653     4337.1761     3    -3006.9328     4349.5976    19896  244.65%
   2074   658        cutoff          -3006.9328     4349.5976    19929  244.65%
   2206   723     4177.8692     1    -3006.9328     4349.5976    20425  244.65%
   2327   706        cutoff          -3006.9328     4349.5976    20371  244.65%
   2783   849        cutoff          -3006.9328     4349.5976    21820  244.65%
Elapsed time = 22.42 sec. (9881.16 ticks, tree = 3.46 MB, solutions = 1)
   3194   860        cutoff          -3006.9328     4349.5976    21875  244.65%
   3593   894     4027.4790     1    -3006.9328     4349.5976    22479  244.65%
   3939   931     3259.9770     1    -3006.9328     4349.5976    22720  244.65%
   4580  1021     2220.7791     2    -3006.9328     4349.5976    23383  244.65%
   5674  1041    -1944.3582     7    -3006.9328     4349.5976    23806  244.65%
   6656  1190     -330.0764     2    -3006.9328     4349.5976    24489  244.65%
   7447  1866    infeasible          -3006.9328     4349.5976    29509  244.65%
   8053  1746     3446.6427     2    -3006.9328     4349.5976    28667  244.65%
   8472  1931     4072.3199     1    -3006.9328     4349.5976    29891  244.65%
   8836  2439     4076.4169     1    -3006.9328     4349.5976    32918  244.65%
Elapsed time = 48.66 sec. (19433.50 ticks, tree = 14.00 MB, solutions = 1)
   9141  1801        cutoff          -3006.9328     4349.5976    28952  244.65%
   9427  2396        cutoff          -3006.9328     4349.5976    32744  244.65%
   9646  2218        cutoff          -3006.9328     4349.5976    31571  244.65%
   9798  1933      929.8245     1    -3006.9328     4349.5976    29889  244.65%
   9907  2444        cutoff          -3006.9328     4349.5976    32955  244.65%
   9995  2515        cutoff          -3006.9328     4349.5976    33718  244.65%
  10067  2341     4257.4392     1    -3006.9328     4349.5976    32326  244.65%
  10099  2544     4257.4392     1    -3006.9328     4349.5976    34011  244.65%
  10107  3347    infeasible          -3006.9328     4349.5976    47211  244.65%
  10736   329     3963.8273     1     3724.2763     4349.5976    49170   16.79%
Elapsed time = 64.17 sec. (33018.29 ticks, tree = 2.64 MB, solutions = 2)
  12334   656     3798.5050     4     3724.2763     4347.8639    51016   16.74%
  14819  2005        cutoff           3724.2763     4345.5803    58185   16.68%
  16963  2400     3975.2972     4     3724.2763     4318.7311    60100   15.96%
  17329  4608     3963.4411     2     3724.2763     4318.7311    70974   15.96%
  18410  4687     3953.4546     2     3724.2763     4318.7311    71424   15.96%
  20716  4747     4121.8431     1     3724.2763     4318.7311    71857   15.96%
  23359  7415        cutoff           3724.2763     4318.7311    86165   15.96%
  25994  6283     4030.6353     1     3724.2763     4318.7311    80849   15.96%
  28592  8713     3909.3024     2     3724.2763     4318.7311    94181   15.96%
  31366  8739     4241.0325     1     3724.2763     4318.7311    94719   15.96%
Elapsed time = 107.23 sec. (42562.46 ticks, tree = 67.93 MB, solutions = 2)
  34208  9806     3944.4421     2     3724.2763     4318.7311   103776   15.96%
  36817 10695     3940.6726     3     3724.2763     4318.7311   110970   15.96%
  38832  9947     3994.3152     1     3724.2763     4318.7311   104684   15.96%
  40287 11502        cutoff           3724.2763     4318.7311   120445   15.96%
  41159 11028     4241.0325     1     3724.2763     4318.7311   116162   15.96%
  41642 11781     4193.6516     2     3724.2763     4318.7311   123479   15.96%
  42368 11781     4009.2884     1     3724.2763     4314.5295   123928   15.85%
  43235 14423     3850.3928     3     4200.7699     4310.8733   157396    2.62%
  44355 14406     3763.2781     3     4200.7699     4278.6158   156786    1.85%
  45411   539     4259.3579     3     4200.7699     4278.6158   191308    1.85%
Elapsed time = 131.83 sec. (52108.99 ticks, tree = 1.69 MB, solutions = 4)
  46222   523        cutoff           4200.7699     4278.6158   191444    1.85%
  46961 14133     4206.4551     3     4200.7699     4278.6158   153681    1.85%
  47390 14711     3821.4476     2     4200.7699     4278.6158   159806    1.85%
  47628 14469        cutoff           4200.7699     4278.6158   157819    1.85%
  47835  1040        cutoff           4200.7699     4278.6158   173328    1.85%

Cover cuts applied:  4
Implied bound cuts applied:  3
Flow cuts applied:  9
Mixed integer rounding cuts applied:  2
Gomory fractional cuts applied:  7

Root node processing (before b&c):
  Real time             =    9.42 sec. (6760.36 ticks)
Parallel b&c, 32 threads:
  Real time             =  122.77 sec. (50601.52 ticks)
  Sync time (average)   =    6.39 sec.
  Wait time (average)   =    0.17 sec.
                          ------------
Total (root+branch&cut) =  132.19 sec. (57361.88 ticks)

Solution pool: 4 solutions saved.

MIP - Integer optimal, tolerance (0.01/1e-06):  Objective =  4.2007699391e+03
Current MIP best bound =  4.2427662477e+03 (gap = 41.9963, 1.00%)
Solution time =  132.22 sec.  Iterations = 197170  Nodes = 47896 (144)
Deterministic time = 57362.03 ticks  (433.84 ticks/sec)

CPLEX> Incumbent solution written to file 'C:\Users\llavin\Desktop\test919\logs\tmpzmy4as9t.cplex.sol'.
CPLEX> NOTE: no warmstart specified for MIP iteration, default behavior is true
NOTE: resolving with all competitive generators using storage-only solution to warmstart
Solving...

Welcome to IBM(R) ILOG(R) CPLEX(R) Interactive Optimizer 12.9.0.0
  with Simplex, Mixed Integer & Barrier Optimizers
5725-A06 5725-A29 5724-Y48 5724-Y49 5724-Y54 5724-Y55 5655-Y21
Copyright IBM Corp. 1988, 2019.  All Rights Reserved.

Type 'help' for a list of available commands.
Type 'help' followed by a command name for more
information on commands.

CPLEX> Logfile 'cplex.log' closed.
Logfile 'C:\Users\llavin\Desktop\test919\logs\tmpavkienyw.cplex.log' open.
CPLEX> New value for parallel optimization mode: -1
CPLEX> New value for mixed integer optimality gap tolerance: 0.01
CPLEX> New value for integrality tolerance: 1e-09
CPLEX> New value for feasibility tolerance: 0.01
CPLEX> New value for deterministic time limit in ticks: 75000
CPLEX> Problem 'C:\Users\llavin\Desktop\test919\logs\tmpeot5usjw.pyomo.lp' read.
Read time = 0.23 sec. (14.81 ticks)
CPLEX> MIP start file 'C:\Users\llavin\Desktop\test919\logs\tmp162fnhq2.cplex.mst' read.
CPLEX> Problem name         : C:\Users\llavin\Desktop\test919\logs\tmpeot5usjw.pyomo.lp
Objective sense      : Maximize
Variables            :   54525  [Nneg: 1,  Box: 22720,  Free: 4464,
                                 Binary: 27340]
Objective nonzeros   :    9676
Linear constraints   :  123205  [Less: 41346,  Greater: 59096,  Equal: 22763]
  Nonzeros           :  291801
  RHS nonzeros       :   67491

Variables            : Min LB: -5000.000        Max UB: 1000000.       
Objective nonzeros   : Min   : 0.1750000        Max   : 760.8083       
Linear constraints   :
  Nonzeros           : Min   : 0.1750000        Max   : 1000000.       
  RHS nonzeros       : Min   : 0.1750000        Max   : 1000000.       
CPLEX> CPXPARAM_Parallel                                -1
CPXPARAM_Simplex_Tolerances_Feasibility          0.01
CPXPARAM_DetTimeLimit                            75000
CPXPARAM_MIP_Tolerances_MIPGap                   0.01
CPXPARAM_MIP_Tolerances_Integrality              1.0000000000000001e-09
Warning:  No solution found from 1 MIP starts.
Retaining values of one MIP start for possible repair.
Tried aggregator 3 times.
MIP Presolve eliminated 88643 rows and 19663 columns.
MIP Presolve added 3402 rows and 0 columns.
MIP Presolve modified 24866 coefficients.
Aggregator did 12995 substitutions.
Reduced MIP has 24969 rows, 21311 columns, and 71251 nonzeros.
Reduced MIP has 8411 binaries, 0 generals, 0 SOSs, and 0 indicators.
Presolve time = 0.28 sec. (176.55 ticks)
Probing fixed 381 vars, tightened 2812 bounds.
Probing time = 1.17 sec. (872.00 ticks)
Tried aggregator 2 times.
MIP Presolve eliminated 860 rows and 763 columns.
MIP Presolve modified 2192 coefficients.
Aggregator did 42 substitutions.
Reduced MIP has 24067 rows, 20506 columns, and 68637 nonzeros.
Reduced MIP has 8030 binaries, 0 generals, 0 SOSs, and 0 indicators.
Presolve time = 0.11 sec. (68.59 ticks)
Probing fixed 0 vars, tightened 3 bounds.
Probing time = 0.06 sec. (31.98 ticks)
Clique table members: 6517.
MIP emphasis: balance optimality and feasibility.
MIP search method: dynamic search.
Parallel mode: opportunistic, using up to 32 threads.
Root relaxation solution time = 0.42 sec. (306.66 ticks)

        Nodes                                         Cuts/
   Node  Left     Objective  IInf  Best Integer    Best Bound    ItCnt     Gap

      0     0   132392.5855  1803                 132392.5855     6466         
      0     0   130863.0876   631                   Cuts: 674     6824         
      0     0   130583.4555   538                   Cuts: 297     6969         
      0     0   130310.8769   525                   Cuts: 158     7058         
      0     0   130263.5363   500                   Cuts: 122     7104         
      0     0   130260.2318   478                    Cuts: 92     7141         
      0     0   130257.4805   451                    Cuts: 79     7165         
      0     0   130257.4805   447                    Cuts: 68     7174         
      0     0   130257.4805   441                    Cuts: 56     7180         
Repair heuristic found nothing.
      0    37    infeasible                          Cuts: 20     8924         
Elapsed time = 11.06 sec. (6554.88 ticks, tree = 0.05 MB, solutions = 0)
    306    49    66012.0112   404                 119676.9711    10954         
    732   204    48853.9684   388                 115799.3183    18281         
   1304   739    37672.4845   338                 115799.3183    29465         
   1951   877    27939.1599   338                 115799.3183    31830         
   2622  1821    31696.9522   316                 115799.3183    42270         
   3512  2030    34535.4903   307                 115799.3183    44690         
   4653  2609    32807.8627   372                 115799.3183    50333         
   5591  2621    40717.9541   374                 115799.3183    51509         
   6334  4013    12493.8052   363                 115799.3183    55198         
*  9050+ 1893                        38031.6871   115799.3183           204.48%
Elapsed time = 27.72 sec. (9396.54 ticks, tree = 10.78 MB, solutions = 3)
  12183  2087    50690.6398   392    38031.6871   111811.1399    73905  193.99%
  12330  3454        cutoff          38031.6871    46941.9161   100161   23.43%
  13758  1089    45014.5507   120    38031.6871    46941.9161   115772   23.43%
  15712  1529    38104.7010   137    38031.6871    46941.9161   119619   23.43%
  19414  3694    42274.3654   149    38031.6871    46584.9387   136446   22.49%
  22917  4817    infeasible          38031.6871    46565.5648   142910   22.44%
  26043  8581    41762.4392   112    38031.6871    46443.0313   170352   22.12%
  29677 10859    38331.9296    45    38031.6871    46439.9049   184502   22.11%
  33267 14892    45702.7927   128    38031.6871    46353.0748   211143   21.88%
  36641 15963    42840.5876   134    38031.6871    46353.0748   220030   21.88%
Elapsed time = 84.80 sec. (22827.71 ticks, tree = 129.93 MB, solutions = 9)
  40117 17054    41392.6461   111    38031.6871    46353.0748   228900   21.88%
  43693 17163    40006.5876    44    38031.6871    46353.0748   229313   21.88%
  46963 20716    43959.4317    88    38031.6871    46353.0748   256364   21.88%
  49817 18587    44538.9455   118    38031.6871    46353.0748   239947   21.88%
  52362 20541    45460.7322   116    38031.6871    46353.0748   255343   21.88%
  55012 22038    45098.5714   146    38031.6871    46353.0748   265884   21.88%
  57337 19096    45328.1269   134    38031.6871    46353.0748   245114   21.88%
  59883 22241    39052.0880    53    38031.6871    46353.0748   266871   21.88%
  62251 19696    39688.2977   146    38031.6871    46353.0748   249646   21.88%
  64575 23586    39318.4747    29    38031.6871    46353.0748   277932   21.88%
Elapsed time = 134.23 sec. (32366.25 ticks, tree = 197.65 MB, solutions = 9)
  66783 22082    45705.5531   131    38031.6871    46353.0748   266690   21.88%
  68899 24048    40119.3843   118    38031.6871    46353.0748   282051   21.88%
  71074 24585    41292.2503   135    38031.6871    46353.0748   284130   21.88%
  73284 29165    39096.2856    99    38031.6871    46353.0748   318758   21.88%
  75201 22373    40708.9695   119    38031.6871    46353.0748   268793   21.88%
  77175 27655    38131.6737    91    38031.6871    46118.7087   305008   21.26%
  79082 23235    43177.2390   103    38031.6871    46118.7087   273666   21.26%
  80953 26771    infeasible          38031.6871    46118.7087   299483   21.26%
  82845 24214    43225.2846   142    38031.6871    46118.7087   282745   21.26%
  84651 29665    43845.5767   140    38031.6871    46118.7087   321841   21.26%
Elapsed time = 168.22 sec. (41907.79 ticks, tree = 252.11 MB, solutions = 9)
  86215 29263    38799.0095   131    38031.6871    46118.7087   317818   21.26%
  87758 28059    39145.3401   140    38031.6871    46118.7087   309145   21.26%
  89072 29880    39992.1662   136    38031.6871    46118.7087   323379   21.26%
  90015 26448    39957.3585   139    38031.6871    46118.7087   296375   21.26%
  90719 30639        cutoff          38031.6871    46118.7087   327638   21.26%
  91364 28317    38367.6384   113    38031.6871    46118.7087   311331   21.26%
  91968 34237    42012.8715   124    38031.6871    46118.7087   357628   21.26%
  92281 30262    38883.4482    59    38031.6871    46118.7087   325778   21.26%
  92804 36328    42734.7617    81    38031.6871    46118.7087   372107   21.26%
  93396 35300    39705.4259   111    38031.6871    46118.7087   365052   21.26%
Elapsed time = 181.91 sec. (51461.87 ticks, tree = 304.74 MB, solutions = 9)
  93928 29873    41403.4594    22    38031.6871    46118.7087   323271   21.26%
  94476 34484    41519.4299    38    38031.6871    46118.7087   359429   21.26%
  95023 32447    38839.8489    43    38031.6871    46118.7087   345236   21.26%
  95496 32510        cutoff          38031.6871    46118.7087   346098   21.26%
  95821 35679    45322.5222   142    38031.6871    46118.7087   367975   21.26%
  96125 31526    39072.1174   108    38031.6871    46118.7087   336935   21.26%
  96493 35842        cutoff          38031.6871    46118.7087   369652   21.26%
  96870 31631        cutoff          38031.6871    46118.7087   338233   21.26%
  97310 32864    44907.6207   119    38031.6871    46118.7087   349377   21.26%
  97751 32974    43453.2395   118    38031.6871    46118.7087   349844   21.26%
Elapsed time = 187.38 sec. (61011.83 ticks, tree = 281.68 MB, solutions = 9)
  98202 34541    40153.3747    26    38031.6871    46118.7087   360142   21.26%
  98601 33093    44312.6271   131    38031.6871    46118.7087   351138   21.26%
  98988 32023    43918.7197   126    38031.6871    46118.7087   340895   21.26%
  99207 36424    40399.6407    22    38031.6871    46118.7087   372888   21.26%
  99424 36356    43518.7234    31    38031.6871    46118.7087   373467   21.26%
  99568 36435        cutoff          38031.6871    46118.7087   372904   21.26%
  99654 36873    41809.4110   117    38031.6871    46118.7087   376732   21.26%
  99780 36962    40610.3401    76    38031.6871    46118.7087   377120   21.26%
  99920 37034    43385.5394   142    38031.6871    46118.7087   377598   21.26%
 100067 37135    42651.7763   113    38031.6871    46118.7087   378334   21.26%
Elapsed time = 192.34 sec. (70598.49 ticks, tree = 322.76 MB, solutions = 9)
 100172 37218        cutoff          38031.6871    46118.7087   378899   21.26%
 100224 37738    40797.6061    22    38031.6871    46118.7087   383731   21.26%
 100229 36819    42292.0560   152    38031.6871    46118.7087   376310   21.26%

Clique cuts applied:  9
Cover cuts applied:  32
Implied bound cuts applied:  16
Flow cuts applied:  291
Mixed integer rounding cuts applied:  69
Gomory fractional cuts applied:  92

Root node processing (before b&c):
  Real time             =    9.69 sec. (6545.56 ticks)
Parallel b&c, 32 threads:
  Real time             =  183.16 sec. (68461.89 ticks)
  Sync time (average)   =    1.77 sec.
  Wait time (average)   =    0.25 sec.
                          ------------
Total (root+branch&cut) =  192.84 sec. (75007.45 ticks)

Solution pool: 9 solutions saved.

MIP - Deterministic time limit exceeded, integer feasible:  Objective =  3.8031687095e+04
Current MIP best bound =  4.6047063859e+04 (gap = 8015.38, 21.08%)
Solution time =  192.88 sec.  Iterations = 619755  Nodes = 100234 (68534)
Deterministic time = 75007.61 ticks  (388.89 ticks/sec)

CPLEX> Incumbent solution written to file 'C:\Users\llavin\Desktop\test919\logs\tmpx0h_1d2i.cplex.sol'.
CPLEX> Exporting results... 
